101 629
1 50 76 77 3 79 78 34 81 33 51 9 35 71 65 66 20 30 70 31 88 7 82 48 19 11 62 10 32 90 63 64 49 36 47 46 8 45 17 84 5 60 83 18 52 89 6 96 99 93 59 92 37 98 100 91 85 61 16 86 38 44 14 42 43 15 57 2 87 97 95 94 13 58 40 21 73 72 74 22 41 75 56 23 67 39 25 55 4 54 24 29 68 80 12 26 28 53 101 27 69 
101 629
1 50 76 77 3 79 33 51 9 81 78 34 35 71 65 66 20 30 70 31 88 7 82 48 19 11 62 10 32 90 63 64 49 36 47 46 8 45 17 84 5 60 83 18 52 89 6 96 99 59 92 93 98 37 100 91 85 61 16 86 38 44 14 42 43 15 57 2 87 97 95 94 13 58 40 21 73 72 74 41 22 75 56 23 67 39 25 55 4 54 24 29 68 80 12 26 28 53 101 27 69 
101 629
1 50 76 77 3 79 78 34 81 33 51 9 35 71 65 66 20 30 70 31 88 7 82 48 19 11 62 10 32 90 63 64 49 36 47 46 8 45 17 84 5 60 83 18 52 89 6 96 99 93 59 92 37 98 100 91 85 61 16 86 44 38 14 42 43 15 57 2 87 97 95 94 13 58 40 21 73 72 74 22 41 75 56 23 67 39 25 55 4 54 24 29 68 80 12 26 28 53 101 27 69 
101 629
1 69 27 101 53 28 26 12 80 68 29 24 54 4 55 25 39 67 23 56 75 41 22 74 72 73 21 40 58 13 94 95 97 87 2 57 15 43 42 14 38 44 86 16 61 85 91 100 37 98 92 59 93 99 96 6 89 52 18 83 60 5 84 17 45 8 46 47 36 49 64 63 90 32 10 62 11 19 48 82 7 88 31 70 30 20 66 71 65 35 34 78 81 9 51 33 79 3 77 76 50 
101 629
1 69 27 101 53 28 26 12 80 68 29 24 54 4 55 25 39 67 23 56 75 41 22 74 72 73 21 40 58 13 94 95 97 87 2 57 15 43 42 14 38 44 86 16 61 85 91 100 37 98 93 92 59 99 96 6 89 52 18 83 60 5 84 17 45 8 46 47 36 49 64 63 90 32 10 62 11 19 48 82 7 88 31 70 30 20 66 71 65 35 34 78 81 9 51 33 79 3 77 76 50 
532 27686
1 3 4 5 16 22 26 28 36 38 49 39 31 19 21 27 40 58 70 80 84 111 105 107 89 102 110 118 129 141 140 150 151 161 168 193 160 169 206 214 215 241 261 265 296 286 315 322 309 283 275 233 247 253 267 289 298 287 297 304 307 325 346 351 333 323 338 357 366 362 368 373 381 391 388 382 376 392 379 367 359 364 352 348 328 339 319 312 300 294 277 254 246 257 226 201 212 234 250 273 258 292 282 303 305 321 334 344 340 324 308 299 313 316 318 345 332 326 295 284 279 281 270 245 248 249 228 227 232 223 213 195 208 187 182 159 146 131 136 170 175 183 188 194 204 181 174 154 147 162 177 200 190 207 205 224 209 198 176 167 179 166 156 135 134 119 78 86 75 73 67 91 109 120 123 103 56 50 41 76 92 101 116 122 127 128 137 171 172 165 152 202 235 268 301 320 327 293 266 229 184 142 121 62 61 88 95 69 98 173 139 117 157 274 330 336 350 356 369 377 389 398 471 432 401 390 383 361 347 354 337 251 199 238 239 217 220 290 311 302 285 278 243 244 222 192 240 256 314 317 331 341 353 363 378 386 406 421 422 466 457 446 452 465 464 472 473 475 476 489 485 480 488 503 506 507 511 517 520 515 518 521 524 525 523 513 508 512 516 527 530 529 528 514 497 479 443 487 499 510 526 522 509 504 491 483 500 502 492 482 486 478 441 411 385 372 375 360 355 349 329 335 343 371 370 365 384 396 394 393 412 449 454 440 455 458 459 462 484 493 496 505 519 532 531 494 495 501 498 490 474 450 442 428 395 374 380 400 418 431 456 467 481 477 461 470 469 468 463 447 445 433 407 410 419 435 437 430 427 424 417 402 420 423 426 405 404 397 403 408 414 415 413 416 425 429 436 438 439 444 453 460 451 448 434 409 399 387 358 342 310 306 288 276 272 264 291 280 255 231 237 221 218 210 191 180 178 153 149 158 138 125 148 189 203 216 236 242 263 259 269 271 260 262 252 225 230 219 211 197 186 196 185 155 163 164 144 145 132 143 124 99 77 68 64 72 79 97 106 85 74 66 60 63 65 71 87 83 96 112 130 133 126 115 114 113 108 104 100 94 93 82 81 90 55 57 51 52 53 59 54 48 43 44 46 47 45 42 37 35 34 33 30 24 29 32 25 23 20 18 17 15 12 11 14 13 10 8 9 7 6 2 
532 27686
1 3 4 5 16 22 26 28 36 38 49 39 31 19 21 27 40 58 70 80 84 111 105 107 89 102 110 118 129 141 140 150 151 161 168 193 160 169 206 214 215 241 261 265 296 286 315 322 309 283 275 233 247 253 267 289 298 287 297 304 307 325 346 351 333 323 338 357 366 362 368 373 381 391 388 382 376 392 379 367 359 364 352 348 328 339 319 312 300 294 277 254 246 257 226 201 212 234 250 273 258 292 282 303 305 321 334 344 340 324 308 299 313 316 318 345 332 326 295 284 279 281 270 245 248 249 228 227 232 223 213 195 208 187 182 159 146 131 136 170 175 183 188 194 204 181 174 154 147 162 177 200 190 207 205 224 209 198 176 167 179 166 156 135 134 119 78 86 75 73 67 91 109 120 123 103 56 50 41 76 92 101 116 122 127 128 137 171 172 165 152 202 235 268 301 320 327 293 266 229 184 142 121 62 61 88 95 69 98 173 139 117 157 274 330 336 350 356 369 377 389 398 471 432 401 390 383 361 347 354 337 251 199 238 239 217 220 290 311 302 285 278 243 244 222 192 240 256 314 317 331 341 353 363 378 386 406 421 422 466 457 446 452 465 464 472 473 475 476 489 485 480 488 503 506 507 511 517 515 520 518 521 524 525 523 513 508 512 516 527 530 529 528 514 497 479 443 487 499 510 526 522 509 504 491 483 500 502 492 482 486 478 441 411 385 372 375 360 355 349 329 335 343 371 370 365 384 396 394 393 412 449 454 440 455 458 459 462 484 493 496 505 519 532 531 494 495 501 498 490 474 450 442 428 395 374 380 400 418 431 456 467 481 477 461 470 469 468 463 447 445 433 407 410 419 435 437 430 427 424 417 402 420 423 426 405 404 397 403 408 414 415 413 416 425 429 436 438 439 444 453 460 451 448 434 409 399 387 358 342 310 306 288 276 272 264 291 280 255 231 237 221 218 210 191 180 178 153 149 158 138 125 148 189 203 216 236 242 263 259 269 271 260 262 252 225 230 219 211 197 186 196 185 155 163 164 144 145 132 143 124 99 77 68 64 72 79 97 106 85 74 66 60 63 65 71 87 83 96 112 130 133 126 115 114 113 108 104 100 94 93 82 81 90 55 57 51 52 53 59 54 48 43 44 46 47 45 42 37 35 34 33 30 24 29 32 25 23 20 18 17 15 12 11 14 13 10 8 9 7 6 2 
532 27686
1 3 4 5 16 22 26 28 36 38 49 39 31 19 21 27 40 58 70 80 84 111 105 107 89 102 110 118 129 141 140 150 151 161 168 193 160 169 206 214 215 241 261 265 296 286 315 322 309 283 275 233 247 253 267 289 298 287 297 304 307 325 346 351 333 323 338 357 366 362 368 373 381 391 388 382 376 392 379 367 359 364 352 348 328 339 319 312 300 294 277 254 246 257 226 201 212 234 250 273 258 292 282 303 305 321 334 344 340 324 308 299 313 316 318 345 332 326 295 284 279 281 270 245 248 249 228 227 232 223 213 195 208 187 182 159 146 131 136 170 175 183 188 194 204 181 174 154 147 162 177 200 190 207 205 224 209 198 176 167 179 166 156 135 134 119 78 86 75 73 67 91 109 120 123 103 56 50 41 76 92 101 116 122 127 128 137 171 172 165 152 202 235 268 301 320 327 293 266 229 184 142 121 62 61 88 95 69 98 173 139 117 157 274 330 336 350 356 369 377 389 398 471 432 401 390 383 361 347 354 337 251 199 238 239 217 220 290 311 302 285 278 243 244 222 192 240 256 314 317 331 341 353 363 378 386 406 421 422 466 457 446 452 465 464 472 473 475 476 489 485 480 488 503 506 507 511 517 520 515 518 521 524 525 523 513 508 512 516 527 530 529 528 514 497 479 443 487 499 510 526 522 509 504 491 483 500 502 492 482 486 478 441 411 385 372 375 360 355 349 329 335 343 371 370 365 384 396 394 393 412 449 454 440 455 458 459 462 484 493 496 505 519 532 531 494 495 501 498 490 474 450 442 428 395 374 380 400 418 431 456 467 481 477 461 470 469 468 463 447 445 433 407 410 419 435 437 430 427 424 417 402 420 423 426 405 404 397 403 408 414 415 413 416 425 429 436 438 439 444 453 460 451 448 434 409 399 387 358 342 310 306 288 276 272 264 291 280 255 231 237 221 218 210 191 180 178 153 149 158 138 125 148 189 203 216 236 242 263 259 269 271 260 262 252 225 230 219 211 197 186 196 185 155 163 164 144 145 132 143 124 99 77 68 64 72 79 97 106 85 74 66 60 63 65 71 87 83 96 112 130 133 126 115 114 113 108 104 100 94 93 82 81 90 55 57 51 52 53 59 54 48 43 44 46 47 45 42 37 35 34 33 30 24 29 32 25 23 20 18 17 15 12 11 14 13 10 8 9 7 6 2 
532 27693
1 3 4 5 16 22 26 28 36 38 49 39 31 19 21 27 40 58 70 80 84 111 105 107 89 102 110 118 129 141 140 150 151 161 168 193 160 169 206 214 215 241 261 265 296 286 315 322 309 283 275 233 247 253 267 289 298 287 297 304 307 325 346 351 333 323 338 357 366 362 368 373 381 391 388 382 376 392 379 367 359 364 352 348 328 339 319 312 300 294 277 254 246 257 226 201 212 204 194 188 187 182 159 146 131 136 183 170 175 181 174 154 147 162 177 200 190 207 205 224 209 198 176 167 179 166 156 135 134 119 78 86 75 73 67 91 109 120 123 103 56 50 41 76 92 101 116 122 137 127 128 121 62 61 88 95 69 98 173 139 117 157 274 330 336 350 356 369 377 389 398 471 432 401 390 383 361 347 354 337 251 199 238 239 217 220 290 311 302 285 278 243 244 222 192 240 256 314 317 331 341 353 363 378 386 406 421 422 466 457 446 452 465 464 472 473 475 476 489 485 480 488 503 506 507 511 517 515 520 518 521 524 525 523 513 508 512 516 527 530 529 528 514 497 479 443 487 499 510 526 522 509 504 491 483 500 502 492 482 486 478 441 411 385 372 375 360 355 349 343 335 329 301 320 327 293 266 229 184 142 171 172 165 152 202 235 268 213 223 232 195 208 227 228 249 248 245 270 273 250 234 258 292 282 303 305 321 334 344 340 324 308 313 316 318 299 281 279 284 295 326 332 345 365 370 371 384 396 394 393 412 449 454 440 455 458 459 462 484 493 496 505 519 532 531 494 495 501 498 490 474 450 442 428 395 374 380 400 418 431 456 467 481 477 461 470 469 468 463 447 445 433 407 410 419 435 437 430 427 424 417 402 420 423 426 405 404 397 403 408 414 415 413 416 425 429 436 438 439 444 453 460 451 448 434 409 399 387 358 342 310 306 288 276 272 264 291 280 255 231 237 221 218 210 191 180 178 153 149 158 138 125 148 189 203 216 236 242 263 259 269 271 260 262 252 225 230 219 211 197 186 196 185 155 163 164 144 145 132 143 124 99 77 68 64 72 79 97 106 85 74 66 60 63 65 71 87 83 96 112 130 133 126 115 114 113 108 104 100 94 93 82 81 90 55 57 51 52 53 59 54 48 43 44 46 47 45 42 37 35 34 33 30 24 29 32 25 23 20 18 17 15 12 11 14 13 10 8 9 7 6 2 
532 27686
1 3 4 5 16 22 26 28 36 38 49 39 31 19 21 27 40 58 70 80 84 111 105 107 89 102 110 118 129 141 140 150 151 161 168 193 160 169 206 214 215 241 261 265 296 286 315 322 309 283 275 233 247 253 267 289 298 287 297 304 307 325 346 351 333 323 338 357 366 362 368 373 381 391 388 382 376 392 379 367 359 364 352 348 328 339 319 312 300 294 277 254 246 257 226 201 212 234 250 273 258 292 282 303 305 321 334 344 340 324 308 299 313 316 318 345 332 326 295 284 279 281 270 245 248 249 228 227 232 223 213 195 208 187 182 159 146 131 136 170 175 183 188 194 204 181 174 154 147 162 177 200 190 207 205 224 209 198 176 167 179 166 156 135 134 119 78 86 75 73 67 91 109 120 123 103 56 50 41 76 92 101 116 122 127 128 137 171 172 165 152 202 235 268 301 320 327 293 266 229 184 142 121 62 61 88 95 69 98 173 139 117 157 274 330 336 350 356 369 377 389 398 471 432 401 390 383 361 347 354 337 251 199 238 239 217 220 290 311 302 285 278 243 244 222 192 240 256 314 317 331 341 353 363 378 386 406 421 422 466 457 446 452 465 464 472 473 475 476 489 485 480 488 503 506 507 511 517 520 515 518 521 524 525 523 513 508 512 516 527 530 529 528 514 497 479 443 487 499 510 526 522 509 504 491 483 500 502 492 482 486 478 441 411 385 372 375 360 355 349 329 335 343 371 370 365 384 396 394 393 412 449 454 440 455 458 459 462 484 493 496 505 519 532 531 494 495 501 498 490 474 450 442 428 395 374 380 400 418 431 456 467 481 477 461 470 469 468 463 447 445 433 407 410 419 435 437 430 427 424 417 402 420 423 426 405 404 397 403 408 414 415 413 416 425 429 436 438 439 444 453 460 451 448 434 409 399 387 358 342 310 306 288 276 272 264 291 280 255 231 237 221 218 210 191 180 178 153 149 158 138 125 148 189 203 216 236 242 263 259 269 271 260 262 252 225 230 219 211 197 186 196 185 155 163 164 144 145 132 143 124 99 77 68 64 72 79 97 106 85 74 66 60 63 65 71 87 83 96 112 130 133 126 115 114 113 108 104 100 94 93 82 81 90 55 57 51 52 53 59 54 48 43 44 46 47 45 42 37 35 34 33 30 24 29 32 25 23 20 18 17 15 12 11 14 13 10 8 9 7 6 2 
